p tw 30 127
e 0 7
e 0 12
e 0 14
e 0 17
e 0 18
e 0 19
e 0 22
e 0 24
e 0 26
e 0 27
e 0 29
e 1 2
e 1 5
e 1 9
e 1 14
e 1 16
e 1 17
e 1 18
e 1 21
e 2 3
e 2 5
e 2 8
e 2 12
e 2 13
e 2 14
e 2 16
e 2 24
e 2 28
e 3 4
e 3 13
e 3 14
e 3 15
e 3 18
e 3 19
e 3 23
e 3 28
e 4 5
e 4 8
e 4 13
e 4 15
e 4 17
e 4 26
e 4 28
e 5 11
e 5 12
e 5 23
e 5 27
e 6 8
e 6 10
e 6 28
e 7 13
e 7 22
e 7 23
e 7 26
e 7 29
e 8 10
e 8 11
e 8 12
e 8 14
e 8 15
e 8 16
e 8 21
e 8 23
e 8 25
e 8 27
e 9 10
e 9 12
e 9 22
e 10 11
e 10 12
e 10 15
e 10 20
e 10 21
e 10 27
e 11 16
e 11 18
e 11 21
e 11 24
e 11 26
e 11 29
e 12 13
e 12 14
e 12 16
e 12 22
e 12 27
e 13 17
e 13 18
e 13 23
e 14 19
e 14 20
e 14 22
e 14 26
e 14 29
e 15 20
e 15 23
e 15 24
e 15 28
e 16 20
e 16 22
e 16 26
e 16 27
e 16 29
e 17 20
e 17 22
e 17 23
e 17 25
e 17 26
e 18 19
e 18 26
e 18 28
e 19 24
e 19 26
e 19 29
e 20 21
e 20 24
e 20 27
e 20 29
e 21 22
e 21 24
e 21 29
e 22 24
e 22 25
e 22 28
e 22 29
e 23 27
e 24 25
e 25 26
